Instance name: /home/cuong/CLionProjects/uMV-FSTSP/50_dis_rand_ins/v100
Write arg val: 1

drone speed: 1 miles/minute
uav non-eligible customer: 8 9 11 
Printing tau:
0 18.241 57.6045 57.5208 43.6131 64.58 57.4524 49.4331 47.944 112.151 116.089 0 
18.241 0 56.2332 56.1495 25.372 46.339 39.2114 34.5165 49.3153 93.9095 97.8476 18.241 
57.6045 56.2332 0 1.10642 50.9119 60.4022 55.1125 90.7497 105.548 64.5691 68.5072 57.6045 
57.5208 56.1495 1.10642 0 50.8282 60.3186 55.0288 90.666 105.465 63.4627 67.4008 57.5208 
43.6131 25.372 50.9119 50.8282 0 20.9669 13.8393 39.8378 54.6365 68.5375 72.4756 43.6131 
64.58 46.339 60.4022 60.3186 20.9669 0 7.12761 30.3474 45.1462 47.5705 51.5086 64.58 
57.4524 39.2114 55.1125 55.0288 13.8393 7.12761 0 35.6372 50.4359 54.6981 58.6362 57.4524 
49.4331 34.5165 90.7497 90.666 39.8378 30.3474 35.6372 0 16.1865 62.7174 66.6555 49.4331 
47.944 49.3153 105.548 105.465 54.6365 45.1462 50.4359 16.1865 0 78.9039 82.842 47.944 
112.151 93.9095 64.5691 63.4627 68.5375 47.5705 54.6981 62.7174 78.9039 0 3.9381 112.151 
116.089 97.8476 68.5072 67.4008 72.4756 51.5086 58.6362 66.6555 82.842 3.9381 0 116.089 
0 0 0 0 0 0 0 0 0 0 0 0 
Printing tau_prime:
0 4.85053 19.8117 19.9829 11.7 17.1404 15.2487 15.7818 15.4707 29.7426 30.7842 0 
4.85053 0 16.8187 16.9369 6.87415 12.3371 10.4017 12.3361 13.6686 24.9166 25.9545 4.85053 
19.8117 16.8187 0 0.294222 13.541 16.6387 14.8465 24.0687 28.2447 23.2821 23.9352 19.8117 
19.9829 16.9369 0.294222 0 13.5449 16.5402 14.7756 24.0423 28.2637 23.052 23.6987 19.9829 
11.7 6.87415 13.541 13.5449 0 6.10271 3.83503 10.6757 14.7462 18.3158 19.3308 11.7 
17.1404 12.3371 16.6387 16.5402 6.10271 0 2.35361 8.99373 14.5719 12.6163 13.6651 17.1404 
15.2487 10.4017 14.8465 14.7756 3.83503 2.35361 0 9.68603 14.8343 14.5506 15.5786 15.2487 
15.7818 12.3361 24.0687 24.0423 10.6757 8.99373 9.68603 0 5.81557 18.5807 19.603 15.7818 
15.4707 13.6686 28.2447 28.2637 14.7462 14.5719 14.8343 5.81557 0 24.2252 25.2262 15.4707 
29.7426 24.9166 23.2821 23.052 18.3158 12.6163 14.5506 18.5807 24.2252 0 1.06168 29.7426 
30.7842 25.9545 23.9352 23.6987 19.3308 13.6651 15.5786 19.603 25.2262 1.06168 0 30.7842 
0 0 0 0 0 0 0 0 0 0 0 0 
Version identifier: 22.1.1.0 | 2022-11-28 | 9160aff4d
CPXPARAM_MIP_Tolerances_Integrality              0
Tried aggregator 1 time.
MIP Presolve eliminated 1 rows and 12 columns.
MIP Presolve modified 20 coefficients.
Reduced MIP has 122 rows, 120 columns, and 510 nonzeros.
Reduced MIP has 110 binaries, 0 generals, 0 SOSs, and 0 indicators.
Presolve time = 0.00 sec. (0.27 ticks)
Found incumbent of value 605.160310 after 0.00 sec. (0.75 ticks)
Probing time = 0.00 sec. (0.26 ticks)
Cover probing fixed 0 vars, tightened 10 bounds.
Tried aggregator 1 time.
Detecting symmetries...
MIP Presolve eliminated 10 rows and 0 columns.
MIP Presolve modified 180 coefficients.
Reduced MIP has 112 rows, 120 columns, and 490 nonzeros.
Reduced MIP has 110 binaries, 0 generals, 0 SOSs, and 0 indicators.
Presolve time = 0.00 sec. (0.35 ticks)
Probing time = 0.00 sec. (0.26 ticks)
Clique table members: 67.
MIP emphasis: balance optimality and feasibility.
MIP search method: dynamic search.
Parallel mode: deterministic, using up to 20 threads.
Root relaxation solution time = 0.00 sec. (0.21 ticks)

        Nodes                                         Cuts/
   Node  Left     Objective  IInf  Best Integer    Best Bound    ItCnt     Gap

*     0+    0                          605.1603        0.0000           100.00%
      0     0      155.2733    17      605.1603      155.2733       26   74.34%
      0     0      295.6337    16      605.1603      Cuts: 26       45   51.15%
*     0+    0                          438.0733      295.6337            32.52%
      0     0      295.6337    20      438.0733      Cuts: 35       61   32.52%
*     0+    0                          330.9018      295.6337            10.66%
      0     0      295.6337    16      330.9018       Cuts: 8       63   10.66%
      0     0      295.6337    16      330.9018      Cuts: 14       73   10.66%
*     0+    0                          318.6798      295.6337             7.23%
      0     0        cutoff            318.6798      318.6798       73    0.00%
Elapsed time = 0.15 sec. (9.14 ticks, tree = 0.01 MB, solutions = 4)

Clique cuts applied:  4
Implied bound cuts applied:  5
Mixed integer rounding cuts applied:  5

Root node processing (before b&c):
  Real time             =    0.15 sec. (9.15 ticks)
Parallel b&c, 20 threads:
  Real time             =    0.00 sec. (0.00 ticks)
  Sync time (average)   =    0.00 sec.
  Wait time (average)   =    0.00 sec.
                          ------------
Total (root+branch&cut) =    0.15 sec. (9.15 ticks)

TSP solution for this instance: 0 2 3 10 9 7 8 5 6 4 1 11 
12
Warmstart X[1][0] == 1
Warmstart X[2][2] == 1
Warmstart X[3][3] == 1
Warmstart X[4][10] == 1
Warmstart X[5][9] == 1
Warmstart X[6][7] == 1
Warmstart X[7][8] == 1
Warmstart X[8][5] == 1
Warmstart X[9][6] == 1
Warmstart X[10][4] == 1
Warmstart X[11][1] == 1
---------------------------------------------
Calculate max stage gap for sortie.... 
Stage gap calculation consumes too much memory. No constraint was added.
---------------------------------------------
Num constraint added = 4752
Warning:  Output names have been modified due to duplicate names or characters invalid in LP format.
Version identifier: 22.1.1.0 | 2022-11-28 | 9160aff4d
CPXPARAM_TimeLimit                               200
CPXPARAM_MIP_Tolerances_Integrality              0
1 of 1 MIP starts provided solutions.
MIP start 'm1' defined initial solution with objective 318.6798.
Tried aggregator 2 times.
MIP Presolve eliminated 5938 rows and 2037 columns.
MIP Presolve modified 2260 coefficients.
Aggregator did 35 substitutions.
Reduced MIP has 1236 rows, 2704 columns, and 27723 nonzeros.
Reduced MIP has 2683 binaries, 0 generals, 0 SOSs, and 0 indicators.
Presolve time = 0.03 sec. (67.98 ticks)
Probing fixed 157 vars, tightened 0 bounds.
Probing changed sense of 4 constraints.
Probing time = 0.04 sec. (88.60 ticks)
Cover probing fixed 0 vars, tightened 23 bounds.
Tried aggregator 2 times.
Detecting symmetries...
MIP Presolve eliminated 115 rows and 189 columns.
MIP Presolve modified 449 coefficients.
Aggregator did 15 substitutions.
Reduced MIP has 1106 rows, 2500 columns, and 23901 nonzeros.
Reduced MIP has 2479 binaries, 0 generals, 0 SOSs, and 0 indicators.
Presolve time = 0.03 sec. (53.97 ticks)
Probing time = 0.00 sec. (5.69 ticks)
Clique table members: 8890.
MIP emphasis: balance optimality and feasibility.
MIP search method: dynamic search.
Parallel mode: deterministic, using up to 20 threads.
Root relaxation solution time = 0.09 sec. (203.22 ticks)

        Nodes                                         Cuts/
   Node  Left     Objective  IInf  Best Integer    Best Bound    ItCnt     Gap

*     0+    0                          318.6798       18.2410            94.28%
      0     0      165.8971   174      318.6798      165.8971       28   47.94%
      0     0      237.8745   263      318.6798      Cuts: 33     1041   25.36%
      0     0      244.2316   224      318.6798      Cuts: 37     2698   23.36%
      0     0      245.7818   238      318.6798      Cuts: 10     3190   22.88%
      0     0      247.1603   193      318.6798      Cuts: 28     3390   22.44%
      0     0      248.5146   186      318.6798      Cuts: 20     3907   22.02%
Detecting symmetries...
      0     0      248.6458   225      318.6798      Cuts: 15     4103   21.98%
      0     0      248.7141   194      318.6798       Cuts: 7     4441   21.95%
      0     0      248.7922   210      318.6798      Cuts: 13     4788   21.93%
      0     0      248.9794   222      318.6798      Cuts: 10     5072   21.87%
      0     0      248.9794   220      318.6798       Cuts: 5     5120   21.87%
      0     0      248.9794   217      318.6798   ZeroHalf: 6     5232   21.87%
Detecting symmetries...
      0     2      248.9794   217      318.6798      248.9794     5232   21.87%
Elapsed time = 1.23 sec. (2008.19 ticks, tree = 0.02 MB, solutions = 1)
     45    12        cutoff            318.6798      249.0488    12359   21.85%
    591    78        cutoff            318.6798      251.0681    46460   21.22%
    804    12      281.7538    97      318.6798      251.0681    72147   21.22%
   1232    14        cutoff            318.6798      253.0045   105178   20.61%
   1451    12      305.9006   146      318.6798      260.9084   123363   18.13%
   1846    33    infeasible            318.6798      261.8122   152312   17.84%
   2479    90        cutoff            318.6798      262.0603   190738   17.77%
   2738   389      311.0148    44      318.6798      262.1149   244709   17.75%
*  3174   432      integral     0      317.6254      262.1274   264397   17.47%
*  3175+  448                          305.4610      262.1274            14.19%
   3304   469      293.7778    40      305.4610      262.1274   279502   14.19%
   5422   745      298.4952   103      305.4610      262.1274   460004   14.19%
Elapsed time = 4.17 sec. (5132.47 ticks, tree = 4.37 MB, solutions = 4)
*  6664  1009      integral     0      302.7185      270.5057   561306   10.64%
   8458    40      287.2348   162      302.7185      272.5289   640962    9.97%

Performing restart 1

Repeating presolve.
Tried aggregator 2 times.
MIP Presolve eliminated 26 rows and 240 columns.
MIP Presolve modified 6159 coefficients.
Aggregator did 2 substitutions.
Reduced MIP has 1078 rows, 2258 columns, and 19103 nonzeros.
Reduced MIP has 2237 binaries, 0 generals, 0 SOSs, and 0 indicators.
Presolve time = 0.02 sec. (31.43 ticks)
Tried aggregator 1 time.
MIP Presolve eliminated 19 rows and 29 columns.
MIP Presolve modified 184 coefficients.
Reduced MIP has 1059 rows, 2229 columns, and 18714 nonzeros.
Reduced MIP has 2208 binaries, 0 generals, 0 SOSs, and 0 indicators.
Presolve time = 0.01 sec. (14.94 ticks)
Tried aggregator 1 time.
MIP Presolve eliminated 2 rows and 2 columns.
MIP Presolve modified 92 coefficients.
Reduced MIP has 1057 rows, 2227 columns, and 18676 nonzeros.
Reduced MIP has 2206 binaries, 0 generals, 0 SOSs, and 0 indicators.
Presolve time = 0.01 sec. (16.68 ticks)
Represolve time = 0.15 sec. (206.20 ticks)
   8979     0      249.9860   204      302.7185      Cuts: 30   689888    7.50%
   8979     0      251.6978   190      302.7185      Cuts: 26   690426    7.50%
   8979     0      252.4884   215      302.7185      Cuts: 17   691817    7.50%
   8979     0      252.5497   218      302.7185      Cuts: 14   692337    7.50%
   8979     0      252.5497   214      302.7185       Cuts: 4   692448    7.50%
   8979     0      252.5497   238      302.7185       Cuts: 6   692989    7.50%
   8979     2      252.5497   228      302.7185      280.0025   692989    7.50%
   8986     5      275.4596   115      302.7185      280.0025   695798    7.50%
   9014     9      254.1051   221      302.7185      280.0025   701829    7.50%
   9107    18      289.3655    66      302.7185      280.0025   725013    7.50%
   9200    18      289.1856   113      302.7185      280.0025   728774    7.50%
   9610    32      295.7460    12      302.7185      280.0025   770703    7.50%
  10653   205      294.2693    79      302.7185      280.0025   845519    7.50%
  11147   203      272.7312   141      302.7185      280.0025   888893    7.50%
  13415   328        cutoff            302.7185      280.0025  1052015    7.50%
Elapsed time = 14.87 sec. (18690.98 ticks, tree = 1.63 MB, solutions = 6)
  13819     5      289.3255    18      302.7185      280.0025  1078546    7.50%
  13852     5      284.2709   211      302.7185      283.5261  1084653    6.34%
  13924    10      288.2142   187      302.7185      286.3093  1094312    5.42%

GUB cover cuts applied:  9
Clique cuts applied:  3
Cover cuts applied:  20
Flow cuts applied:  1
Mixed integer rounding cuts applied:  1
Zero-half cuts applied:  36
Lift and project cuts applied:  6
Gomory fractional cuts applied:  11

Root node processing (before b&c):
  Real time             =    1.20 sec. (1971.39 ticks)
Parallel b&c, 20 threads:
  Real time             =   15.48 sec. (19950.13 ticks)
  Sync time (average)   =    6.60 sec.
  Wait time (average)   =    0.01 sec.
                          ------------
Total (root+branch&cut) =   16.68 sec. (21921.52 ticks)
Feasible solution found!
Truck nodes:
Stage 1 at customer 0 with arrival time is: 0
Stage 1 at customer 0 with departure time is: 0
Stage 2 at customer 1 with arrival time is: 18.241
Stage 2 at customer 1 with departure time is: 19.5741
Stage 3 at customer 2 with arrival time is: 75.8073
Stage 3 at customer 2 with departure time is: 75.8073
Stage 4 at customer 3 with arrival time is: 76.9138
Stage 4 at customer 3 with departure time is: 76.9138
Stage 5 at customer 9 with arrival time is: 140.376
Stage 5 at customer 9 with departure time is: 140.376
Stage 6 at customer 10 with arrival time is: 144.315
Stage 6 at customer 10 with departure time is: 144.315
Stage 7 at customer 5 with arrival time is: 195.823
Stage 7 at customer 5 with departure time is: 195.823
Stage 8 at customer 6 with arrival time is: 202.951
Stage 8 at customer 6 with departure time is: 202.951
Stage 9 at customer 7 with arrival time is: 238.588
Stage 9 at customer 7 with departure time is: 238.588
Stage 10 at customer 8 with arrival time is: 254.774
Stage 10 at customer 8 with departure time is: 254.774
Stage 11 at customer 11 with arrival time is: 302.718
Stage 11 at customer 11 with departure time is: 302.718
Truck arcs:
Arc 1 connecting 0 and 1 with cost 18.241 
Arc 2 connecting 1 and 2 with cost 56.2332 
Arc 3 connecting 2 and 3 with cost 1.10642 
Arc 4 connecting 3 and 9 with cost 63.4627 
Arc 5 connecting 9 and 10 with cost 3.9381 
Arc 6 connecting 10 and 5 with cost 51.5086 
Arc 7 connecting 5 and 6 with cost 7.12761 
Arc 8 connecting 6 and 7 with cost 35.6372 
Arc 9 connecting 7 and 8 with cost 16.1865 
Arc 10 connecting 8 and 11 with cost 47.944 
Customer 4 served by drone.
Drone fly from 0 at stage 1 to serve 4 and then fly back to 1 at stage 2. 
Truck arcs during this sortie: 0--->1
Truck travel time from stage 1 to 2 is: 18.241
Total drone travel time: 18.5741
Drone arrival time: 18.5741
Truck arrival time: 18.241
Truck departure time = max(d/a, t/a) plus (sl/sr): 19.5741
Done!
-------------------------Re-calculated objective-----------------------
302.718
------------------------------------------------------------------------
Solve time: 16.68
OBJECTIVE VALUE: 302.718, NUMBER OF SORTIES: 1.
Number of revisit: 0
In write mode
